; benchmark generated from python API
(set-info :status unknown)
(declare-fun S_1 () Real)
(declare-fun S_3 () Real)
(declare-fun S_4 () Real)
(declare-fun S_0 () Real)
(declare-fun S_2 () Real)
(declare-fun A_3 () Real)
(declare-fun L_1 () Real)
(declare-fun A_0 () Real)
(declare-fun L_0 () Real)
(declare-fun L0 () Real)
(declare-fun A_1 () Real)
(declare-fun A_2 () Real)
(declare-fun L_2 () Real)
(declare-fun A_4 () Real)
(assert
 (let (($x9026 (<= (+ L_0 (* (- 1.0) A_0) (* (- 1.0) S_3) (* 2.0 S_1)) 0.0)))
 (let (($x10406 (<= (+ L_1 S_4 (* (- 1.0) A_3) (* (- (/ 1.0 2.0)) S_3) (* (/ 1.0 2.0) S_0)) 0.0)))
 (let (($x37 (>= L0 0.0)))
 (let (($x1784 (<= (+ L_0 S_0 (* (- 1.0) A_0)) 0.0)))
 (let ((?x1097 (* (- 1.0) S_0)))
 (let ((?x5818 (* 5.0 A_1)))
 (let ((?x6869 (* (- 5.0) A_2)))
 (let ((?x5843 (* 5.0 L_2)))
 (let ((?x908 (* (- 5.0) L_1)))
 (let (($x64 (= L_2 L_1)))
 (let ((?x4871 (* 2.0 A_1)))
 (let ((?x5067 (* (- 2.0) A_2)))
 (let ((?x2578 (* 2.0 L_2)))
 (let ((?x5065 (* (- 2.0) L_1)))
 (let (($x2721 (>= S_4 (+ A_3 (* (- 1.0) L_1)))))
 (let ((?x944 (* 3.0 A_1)))
 (let ((?x945 (* (- 3.0) A_2)))
 (let ((?x1746 (* 3.0 L_2)))
 (let ((?x942 (* (- 3.0) L_1)))
 (let ((?x2671 (* 4.0 A_1)))
 (let ((?x5174 (* (- 4.0) A_2)))
 (let ((?x6844 (* 4.0 L_2)))
 (let ((?x4670 (* (- 4.0) L_1)))
 (let ((?x524 (* (- 1.0) S_4)))
 (let ((?x237 (* (- 1.0) A_1)))
 (let ((?x561 (* (- 1.0) L_2)))
 (let (($x54 (= L_1 L_0)))
 (let (($x3885 (or $x64 (<= (+ ?x4670 ?x6844 ?x5174 ?x2671 S_4 (* (- 1.0) S_1)) 0.0))))
 (let (($x10583 (or $x64 (<= (+ ?x4670 ?x6844 ?x5174 ?x2671 (* (- 1.0) A_0) L_0 S_4) 0.0))))
 (let (($x10574 (or $x64 (<= (+ ?x5065 ?x2578 ?x5067 ?x4871 S_2 (* (- 1.0) A_0) L_0) 0.0))))
 (let (($x10856 (or $x64 (<= (+ ?x5065 ?x2578 ?x5067 ?x4871 S_2 (* (- 1.0) S_1)) 0.0))))
 (let (($x5907 (<= (+ S_2 (* (- (/ 3.0 4.0)) S_4) (* (- (/ 1.0 4.0)) S_0)) 0.0)))
 (let (($x4469 (>= S_4 (+ A_3 (* (- 1.0) L_0)))))
 (let (($x1994 (not (= L_0 L_1))))
 (let (($x704 (<= (+ L_0 (* 3.0 S_2) (* (- 1.0) A_0) (* (- 2.0) S_4)) 0.0)))
 (let (($x10900 (or $x2721 (<= (+ (* 3.0 S_2) (* (- 2.0) S_4) (* (- 1.0) S_1)) 0.0))))
 (let (($x10707 (or $x64 (<= (+ ?x942 ?x1746 ?x945 ?x944 (* (- 1.0) S_2) S_4) 0.0))))
 (let ((?x4371 (* (- 2.0) A_1)))
 (let ((?x1338 (* 2.0 A_2)))
 (let ((?x1339 (* (- 2.0) L_2)))
 (let ((?x5454 (* 2.0 L_1)))
 (let (($x6519 (<= (+ (* (- 3.0) L_0) ?x1746 ?x945 ?x944 (* (- 1.0) S_2) S_4) 0.0)))
 (let (($x3432 (= L_2 L_0)))
 (let (($x5731 (or $x64 (<= (+ ?x942 ?x1746 ?x945 ?x944 S_3 (* (- 1.0) S_1)) 0.0))))
 (let (($x10732 (or $x64 (<= (+ ?x942 ?x1746 ?x945 ?x944 (* (- 1.0) A_0) L_0 S_3) 0.0))))
 (let (($x10970 (or $x54 (<= (+ ?x5454 ?x1339 ?x1338 ?x4371 (* (- 1.0) S_3) S_0) 0.0))))
 (let ((?x3045 (* (- 3.0) A_1)))
 (let ((?x5685 (* 3.0 A_2)))
 (let ((?x5684 (* (- 3.0) L_2)))
 (let ((?x3718 (* 3.0 L_1)))
 (let (($x10818 (or $x64 (<= (+ ?x5065 ?x2578 ?x5067 ?x4871 (* (- 1.0) S_2) S_3) 0.0))))
 (let (($x10697 (or $x64 (<= (+ ?x5065 ?x2578 ?x5067 ?x4871 (* (- 1.0) S_3) S_4) 0.0))))
 (let (($x8012 (<= (+ L_0 (* (- (/ 1.0 2.0)) S_4) (* (- 1.0) A_0) (* (/ 3.0 2.0) S_1)) 0.0)))
 (let ((?x522 (* (- 1.0) L_1)))
 (let ((?x523 (+ A_1 ?x522)))
 (let (($x587 (<= ?x523 S_4)))
 (let (($x913 (not (<= ?x523 S_3))))
 (let (($x9027 (or $x54 (<= (+ L_1 ?x561 A_2 ?x237 (* (- 1.0) S_3) S_1) 0.0))))
 (let (($x2002 (or $x54 (<= (+ L_1 ?x561 A_2 ?x237 (* (- 1.0) S_2) S_0) 0.0))))
 (let (($x537 (or $x54 (not (<= L_1 L_0)))))
 (let (($x5623 (<= (+ ?x522 L_2 (* (- 1.0) A_2) A_1 (* (- 1.0) A_0) L_0 S_1) 0.0)))
 (let (($x3287 (or $x64 (not (<= L_2 L_1)))))
 (let ((?x528 (* (- 1.0) L_0)))
 (let ((?x800 (+ A_0 ?x528)))
 (let (($x794 (<= ?x800 S_3)))
 (let (($x123 (>= A_2 A_1)))
 (let (($x117 (>= S_3 S_2)))
 (let (($x114 (>= S_2 S_1)))
 (let (($x111 (>= S_1 S_0)))
 (let (($x36 (>= L_0 L0)))
 (let (($x125 (>= A_4 A_3)))
 (let (($x124 (>= A_3 A_2)))
 (let (($x3588 (<= S_4 (+ A_4 ?x561))))
 (and $x3588 $x124 $x125 $x36 $x111 $x114 $x117 $x123 $x794 $x3287 (or $x64 (<= (+ ?x522 L_2 (* (- 1.0) A_2) A_1) (- 5.0))) (or $x64 $x5623) $x537 $x2002 $x9027 $x913 $x587 (or $x2721 (<= (+ (* (- (/ 1.0 2.0)) S_4) (* (/ 1.0 2.0) S_1)) (- 5.0))) (or $x2721 $x8012) $x10697 $x10818 (or $x54 (<= (+ ?x3718 ?x5684 ?x5685 ?x3045 ?x524 S_0) 0.0)) (or (<= (+ (* (- (/ 1.0 3.0)) S_4) (* (/ 1.0 3.0) S_0)) (- 5.0)) $x2721) $x10970 $x10732 $x5731 (or $x1994 $x3432 $x6519) (or $x54 (<= (+ ?x5454 ?x1339 ?x1338 ?x4371 ?x524 S_1) 0.0)) $x10707 $x10900 (or $x704 $x2721) (or (<= (+ S_2 ?x524) (- 5.0)) $x2721) (or $x1994 $x4469 $x5907) $x10856 $x10574 $x10583 $x3885 (or $x2721 $x5907) (or $x54 (<= (+ L_1 ?x561 A_2 ?x237 S_2 ?x524) 0.0)) (or $x64 (<= (+ ?x4670 ?x6844 ?x5174 ?x2671 S_3 ?x1097) 0.0)) (or $x64 (<= (+ ?x942 ?x1746 ?x945 ?x944 S_2 ?x1097) 0.0)) (or $x2721 (<= (+ (* (- (/ 1.0 2.0)) S_4) S_1 (* (- (/ 1.0 2.0)) S_0)) 0.0)) (or $x64 (<= (+ ?x5065 ?x2578 ?x5067 ?x4871 S_1 ?x1097) 0.0)) (or $x64 (<= (+ ?x908 ?x5843 ?x6869 ?x5818 S_4 ?x1097) 0.0)) $x1784 $x37 (<= (+ (* (- 1.0) S_3) (* (/ 1.0 2.0) S_4) (* (/ 1.0 2.0) S_0)) 0.0) (<= (+ (* (- 1.0) S_2) (* (/ 1.0 4.0) S_4) (* (/ 3.0 4.0) S_0)) 0.0) $x10406 (<= (+ (* (- 1.0) S_2) S_0) (- 5.0)) (<= (+ L_1 (* (- 1.0) S_2) S_4 (* (- 1.0) A_3) S_0) 0.0) (<= (+ (* (- (/ 1.0 2.0)) S_3) (* (/ 1.0 2.0) S_0)) (- 5.0)) (<= (+ (* (- 1.0) S_3) S_1) (- 5.0)) $x9026 (<= (+ L_1 S_4 (* (- 1.0) A_3) (* (- 1.0) S_3) S_1) 0.0) (<= (+ (* (- 2.0) S_3) (* 3.0 S_1) ?x1097) 0.0) (<= (+ (* (- 3.0) S_2) S_3 (* 2.0 S_0)) 0.0) (<= (+ S_4 (* (- 3.0) S_3) (* 2.0 S_1)) 0.0))))))))))))))))))))))))))))))))))))))))))))))))))))))))))))))))))))))))))))
(check-sat)
